nohup: ignoring input
original problem has 3648 variables (192 bin, 0 int, 0 impl, 3456 cont) and 3312 constraints
original problem has 842 variables (421 bin, 0 int, 0 impl, 421 cont) and 479 constraints
original problem has 2728 variables (1364 bin, 0 int, 0 impl, 1364 cont) and 1442 constraints
original problem has 8904 variables (8904 bin, 0 int, 0 impl, 0 cont) and 1069 constraints
/home/liudefen/projects/ML4LocalBranch_extend/models_rl.py:61: UserWarning: Implicit dimension choice for log_softmax has been deprecated. Change the call to include dim=X as an argument.
  probs = F.log_softmax(preds)
Traceback (most recent call last):
  File "/home/liudefen/projects/ML4LocalBranch_extend/primal_heur_localbranch.py", line 388, in heurexec
    self.agent_k, self.optim_k, R = self.update_agent(agent_k, self.optim_k)
  File "/home/liudefen/projects/ML4LocalBranch_extend/primal_heur_localbranch.py", line 601, in update_agent
    policy_losses = torch.cat(policy_losses).sum()
RuntimeError: There were no tensor arguments to this function (e.g., you passed an empty list of Tensors), but no fallback function is registered for schema aten::_cat.  This usually means that this function requires a non-empty list of Tensors.  Available functions are [CPU, CUDA, QuantizedCPU, BackendSelect, Named, AutogradOther, AutogradCPU, AutogradCUDA, AutogradXLA, AutogradPrivateUse1, AutogradPrivateUse2, AutogradPrivateUse3, Tracer, Autocast, Batched, VmapMode].

CPU: registered at /pytorch/build/aten/src/ATen/CPUType.cpp:2127 [kernel]
CUDA: registered at /pytorch/build/aten/src/ATen/CUDAType.cpp:2983 [kernel]
QuantizedCPU: registered at /pytorch/build/aten/src/ATen/QuantizedCPUType.cpp:297 [kernel]
BackendSelect: fallthrough registered at /pytorch/aten/src/ATen/core/BackendSelectFallbackKernel.cpp:3 [backend fallback]
Named: registered at /pytorch/aten/src/ATen/core/NamedRegistrations.cpp:7 [backend fallback]
AutogradOther: registered at /pytorch/torch/csrc/autograd/generated/VariableType_2.cpp:8078 [autograd kernel]
AutogradCPU: registered at /pytorch/torch/csrc/autograd/generated/VariableType_2.cpp:8078 [autograd kernel]
AutogradCUDA: registered at /pytorch/torch/csrc/autograd/generated/VariableType_2.cpp:8078 [autograd kernel]
AutogradXLA: registered at /pytorch/torch/csrc/autograd/generated/VariableType_2.cpp:8078 [autograd kernel]
AutogradPrivateUse1: registered at /pytorch/torch/csrc/autograd/generated/VariableType_2.cpp:8078 [autograd kernel]
AutogradPrivateUse2: registered at /pytorch/torch/csrc/autograd/generated/VariableType_2.cpp:8078 [autograd kernel]
AutogradPrivateUse3: registered at /pytorch/torch/csrc/autograd/generated/VariableType_2.cpp:8078 [autograd kernel]
Tracer: registered at /pytorch/torch/csrc/autograd/generated/TraceType_2.cpp:9654 [kernel]
Autocast: registered at /pytorch/aten/src/ATen/autocast_mode.cpp:258 [kernel]
Batched: registered at /pytorch/aten/src/ATen/BatchingRegistrations.cpp:511 [backend fallback]
VmapMode: fallthrough registered at /pytorch/aten/src/ATen/VmapModeRegistrations.cpp:33 [backend fallback]

Exception ignored in: 'pyscipopt.scip.PyHeurExec'
Traceback (most recent call last):
  File "/home/liudefen/projects/ML4LocalBranch_extend/primal_heur_localbranch.py", line 388, in heurexec
    self.agent_k, self.optim_k, R = self.update_agent(agent_k, self.optim_k)
  File "/home/liudefen/projects/ML4LocalBranch_extend/primal_heur_localbranch.py", line 601, in update_agent
    policy_losses = torch.cat(policy_losses).sum()
RuntimeError: There were no tensor arguments to this function (e.g., you passed an empty list of Tensors), but no fallback function is registered for schema aten::_cat.  This usually means that this function requires a non-empty list of Tensors.  Available functions are [CPU, CUDA, QuantizedCPU, BackendSelect, Named, AutogradOther, AutogradCPU, AutogradCUDA, AutogradXLA, AutogradPrivateUse1, AutogradPrivateUse2, AutogradPrivateUse3, Tracer, Autocast, Batched, VmapMode].

CPU: registered at /pytorch/build/aten/src/ATen/CPUType.cpp:2127 [kernel]
CUDA: registered at /pytorch/build/aten/src/ATen/CUDAType.cpp:2983 [kernel]
QuantizedCPU: registered at /pytorch/build/aten/src/ATen/QuantizedCPUType.cpp:297 [kernel]
BackendSelect: fallthrough registered at /pytorch/aten/src/ATen/core/BackendSelectFallbackKernel.cpp:3 [backend fallback]
Named: registered at /pytorch/aten/src/ATen/core/NamedRegistrations.cpp:7 [backend fallback]
AutogradOther: registered at /pytorch/torch/csrc/autograd/generated/VariableType_2.cpp:8078 [autograd kernel]
AutogradCPU: registered at /pytorch/torch/csrc/autograd/generated/VariableType_2.cpp:8078 [autograd kernel]
AutogradCUDA: registered at /pytorch/torch/csrc/autograd/generated/VariableType_2.cpp:8078 [autograd kernel]
AutogradXLA: registered at /pytorch/torch/csrc/autograd/generated/VariableType_2.cpp:8078 [autograd kernel]
AutogradPrivateUse1: registered at /pytorch/torch/csrc/autograd/generated/VariableType_2.cpp:8078 [autograd kernel]
AutogradPrivateUse2: registered at /pytorch/torch/csrc/autograd/generated/VariableType_2.cpp:8078 [autograd kernel]
AutogradPrivateUse3: registered at /pytorch/torch/csrc/autograd/generated/VariableType_2.cpp:8078 [autograd kernel]
Tracer: registered at /pytorch/torch/csrc/autograd/generated/TraceType_2.cpp:9654 [kernel]
Autocast: registered at /pytorch/aten/src/ATen/autocast_mode.cpp:258 [kernel]
Batched: registered at /pytorch/aten/src/ATen/BatchingRegistrations.cpp:511 [backend fallback]
VmapMode: fallthrough registered at /pytorch/aten/src/ATen/VmapModeRegistrations.cpp:33 [backend fallback]

./result/saved_models/regression/trained_params_mean_setcover-independentset-combinatorialauction_asymmetric_firstsol_k_prime_epoch163.pth
./result/saved_models/rl/reinforce/setcovering/checkpoint_trained_reward3_simplepolicy_rl4lb_reinforce_trainset_setcovering-small_lr0.01_epochs7.pth
miplib_39binary-small
firstsol
seed: 0
cpu
instance:  0
create a new SCIP model
The initial incumbent of miplib_39binary-0_transformed_a1c1s1 is successfully added to MIP model
miplib_39binary-0_transformed_a1c1s1
N of variables: 3648
N of binary vars: 192
N of constraints: 3312
Initial obj of MIP: 21141.52
LB heuristic is starting..
LB heuristic starts at 0.050328 s
No. of LB call:  1
LB initial objective: 21141.52
The init sol of original MIP is feasible
LB round: 1 Solving time: 2.0340 Best Obj: 19211.9775 n_sols_subMIP: 5 K: 20 t_node: 2.0 self.div: 0 LB Status: timelimit
LB round: 2 Solving time: 4.0529 Best Obj: 18870.6969 n_sols_subMIP: 9 K: 20 t_node: 2.0 self.div: 0 LB Status: timelimit
LB round: 3 Solving time: 6.0738 Best Obj: 18006.7403 n_sols_subMIP: 12 K: 20 t_node: 2.0 self.div: 0 LB Status: timelimit
LB round: 4 Solving time: 8.0838 Best Obj: 17233.8879 n_sols_subMIP: 7 K: 20 t_node: 2.0 self.div: 0 LB Status: timelimit
LB round: 5 Solving time: 10.0988 Best Obj: 16858.8879 n_sols_subMIP: 6 K: 20 t_node: 2.0 self.div: 0 LB Status: timelimit
LB round: 6 Solving time: 12.1194 Best Obj: 16858.8879 n_sols_subMIP: 6 K: 20 t_node: 2.0 self.div: 0 LB Status: timelimit
K_final: 20 div_final: 0
LB heuristic finishes at 12.465263 s
LB final objective: 16858.887937500014
LB heurisitc succeeds, finds an improving solution
Instance: miplib_39binary-0_transformed_a1c1s1
Status of SCIP_baseline:  timelimit
Best obj of SCIP_baseline:  12414.282312499992
Solving time:  600.001707


[array([21141.52      , 19211.97746782, 18870.696875  , 18006.7403125 ,
       17233.8879375 , 16858.8879375 , 16412.7340625 , 16294.7340625 ,
       16268.29566027, 14698.91873066, 14456.99868109, 14437.683125  ,
       14302.5123125 , 13952.5123125 , 13893.0830421 , 13748.631375  ,
       13735.94361458, 13716.644875  , 13606.03019142, 13458.54466441,
       13130.141875  , 12836.4010125 , 12589.2823125 , 12414.2823125 ]), array([  0.      ,   2.194994,   4.257686,   6.31988 ,   8.362337,
        10.411423,  37.928506,  37.980209,  38.139799,  46.273157,
        46.290619,  46.334285,  46.432393,  46.53294 , 137.479614,
       170.809643, 171.075693, 171.184221, 281.623178, 281.635716,
       282.080074, 384.916782, 384.92024 , 385.446433])]
instance:  1
create a new SCIP model
The initial incumbent of miplib_39binary-1_transformed_aflow30a is successfully added to MIP model
miplib_39binary-1_transformed_aflow30a
N of variables: 842
N of binary vars: 421
N of constraints: 479
Initial obj of MIP: 4374.0
LB heuristic is starting..
LB heuristic starts at 0.008609 s
No. of LB call:  1
LB initial objective: 4374.0
The init sol of original MIP is feasible
LB round: 1 Solving time: 0.9500 Best Obj: 1900.0000 n_sols_subMIP: 10 K: 20 t_node: 2.0 self.div: 0 LB Status: optimal
LB round: 2 Solving time: 2.9503 Best Obj: 1397.0000 n_sols_subMIP: 13 K: 20 t_node: 2.0 self.div: 0 LB Status: timelimit
LB round: 3 Solving time: 4.9505 Best Obj: 1397.0000 n_sols_subMIP: 10 K: 30 t_node: 2.0 self.div: 0 LB Status: timelimit
K_final: 30 div_final: 0
LB heuristic finishes at 5.003004 s
LB final objective: 1397.0
LB heurisitc succeeds, finds an improving solution
Instance: miplib_39binary-1_transformed_aflow30a
Status of SCIP_baseline:  optimal
Best obj of SCIP_baseline:  1158.0
Solving time:  44.087461


[array([4374., 1900., 1397., 1173., 1168., 1160., 1159., 1158.]), array([ 0.      ,  0.98459 ,  2.994044,  6.143487, 16.531418, 24.967249,
       33.377714, 42.362691])]
instance:  2
create a new SCIP model
The initial incumbent of miplib_39binary-2_transformed_aflow40b is successfully added to MIP model
miplib_39binary-2_transformed_aflow40b
N of variables: 2728
N of binary vars: 1364
N of constraints: 1442
Initial obj of MIP: 8410.0
LB heuristic is starting..
LB heuristic starts at 0.030810999999999998 s
No. of LB call:  1
LB initial objective: 8410.0
The init sol of original MIP is feasible
LB round: 1 Solving time: 0.2309 Best Obj: 4974.0000 n_sols_subMIP: 4 K: 20 t_node: 2.0 self.div: 0 LB Status: optimal
LB round: 2 Solving time: 2.2317 Best Obj: 2404.0000 n_sols_subMIP: 7 K: 30 t_node: 2.0 self.div: 0 LB Status: timelimit
LB round: 3 Solving time: 4.2323 Best Obj: 2264.0000 n_sols_subMIP: 2 K: 15 t_node: 2.0 self.div: 0 LB Status: timelimit
LB round: 4 Solving time: 6.2325 Best Obj: 1878.0000 n_sols_subMIP: 4 K: 10 t_node: 2.0 self.div: 0 LB Status: timelimit
LB round: 5 Solving time: 8.2327 Best Obj: 1878.0000 n_sols_subMIP: 4 K: 10 t_node: 2.0 self.div: 0 LB Status: timelimit
K_final: 10 div_final: 0
LB heuristic finishes at 8.399137 s
LB final objective: 1878.0
LB heurisitc succeeds, finds an improving solution
Instance: miplib_39binary-2_transformed_aflow40b
Status of SCIP_baseline:  timelimit
Best obj of SCIP_baseline:  1181.0000000000023
Solving time:  600.000318


[array([8410., 4974., 2404., 2264., 1878., 1284., 1273., 1243., 1193.,
       1181.]), array([0.00000000e+00, 3.21210000e-01, 2.34238800e+00, 4.36008600e+00,
       6.38269800e+00, 1.29075080e+01, 4.14684096e+02, 4.26029166e+02,
       4.70070811e+02, 5.62343041e+02])]
instance:  3
create a new SCIP model
The initial incumbent of miplib_39binary-3_transformed_air04 is successfully added to MIP model
miplib_39binary-3_transformed_air04
N of variables: 8904
N of binary vars: 8904
N of constraints: 1069
Initial obj of MIP: 57283.999999999985
LB heuristic is starting..
LB heuristic starts at 0.21099299999999999 s
No. of LB call:  1
LB initial objective: 57283.999999999985
The init sol of original MIP is feasible
LB round: 1 Solving time: 2.0088 Best Obj: 57284.0000 n_sols_subMIP: 1 K: 20 t_node: 2.0 self.div: 0 LB Status: timelimit
K_final: 20 div_final: 0
Traceback (most recent call last):
  File "evaluation_scip_lb_rl.py", line 110, in <module>
    scip_as_baseline.execute_heuristic_baseline(
  File "/home/liudefen/projects/ML4LocalBranch_extend/execute_heuristics.py", line 371, in execute_heuristic_baseline
    self.setup_heuristic_per_instance(MIP_model=MIP_model,
  File "/home/liudefen/projects/ML4LocalBranch_extend/execute_heuristics.py", line 290, in setup_heuristic_per_instance
    data = self.execute_heuristic_per_instance(MIP_model, incumbent, node_time_limit,
  File "/home/liudefen/projects/ML4LocalBranch_extend/execute_heuristics.py", line 1965, in execute_heuristic_per_instance
    MIP_model.optimize()
  File "src/pyscipopt/scip.pyx", line 3158, in pyscipopt.scip.Model.optimize
  File "src/pyscipopt/scip.pyx", line 231, in pyscipopt.scip.PY_SCIP_CALL
Exception: SCIP: unspecified error!
